backend/data/formal_work/formal_c6609df1/formal_c6609df1_bmc/model/design_smt2.smt2
; SMT-LIBv2 description generated by Yosys 0.63+184 (git sha1 240439bdb-dirty, aarch64-apple-darwin23.5-clang++ 18.1.8 -fPIC -O3)
; yosys-smt2-module fifo_checker
(declare-sort |fifo_checker_s| 0)
(declare-fun |fifo_checker_is| (|fifo_checker_s|) Bool)
; yosys-smt2-witness {"offset": 0, "path": ["$auto$async2sync.cc:107:execute$206"], "smtname": 0, "smtoffset": 0, "type": "reg", "width": 1}
(declare-fun |fifo_checker#0| (|fifo_checker_s|) (_ BitVec 1)) ; $auto$async2sync.cc:107:execute$206
; yosys-smt2-register $auto$async2sync.cc:107:execute$206 1
(define-fun |fifo_checker_n $auto$async2sync.cc:107:execute$206| ((state |fifo_checker_s|)) Bool (= ((_ extract 0 0) (|fifo_checker#0| state)) #b1))
; yosys-smt2-witness {"offset": 0, "path": ["$auto$async2sync.cc:116:execute$222"], "smtname": 1, "smtoffset": 0, "type": "reg", "width": 1}
(declare-fun |fifo_checker#1| (|fifo_checker_s|) (_ BitVec 1)) ; $auto$async2sync.cc:116:execute$222
; yosys-smt2-register $auto$async2sync.cc:116:execute$222 1
(define-fun |fifo_checker_n $auto$async2sync.cc:116:execute$222| ((state |fifo_checker_s|)) Bool (= ((_ extract 0 0) (|fifo_checker#1| state)) #b1))
; yosys-smt2-witness {"offset": 0, "path": ["$auto$async2sync.cc:107:execute$194"], "smtname": 2, "smtoffset": 0, "type": "reg", "width": 1}
(declare-fun |fifo_checker#2| (|fifo_checker_s|) (_ BitVec 1)) ; $auto$async2sync.cc:107:execute$194
; yosys-smt2-register $auto$async2sync.cc:107:execute$194 1
(define-fun |fifo_checker_n $auto$async2sync.cc:107:execute$194| ((state |fifo_checker_s|)) Bool (= ((_ extract 0 0) (|fifo_checker#2| state)) #b1))
; yosys-smt2-witness {"offset": 0, "path": ["$auto$async2sync.cc:107:execute$224"], "smtname": 3, "smtoffset": 0, "type": "reg", "width": 1}
(declare-fun |fifo_checker#3| (|fifo_checker_s|) (_ BitVec 1)) ; $auto$async2sync.cc:107:execute$224
; yosys-smt2-register $auto$async2sync.cc:107:execute$224 1
(define-fun |fifo_checker_n $auto$async2sync.cc:107:execute$224| ((state |fifo_checker_s|)) Bool (= ((_ extract 0 0) (|fifo_checker#3| state)) #b1))
; yosys-smt2-witness {"offset": 0, "path": ["$auto$async2sync.cc:107:execute$230"], "smtname": 4, "smtoffset": 0, "type": "reg", "width": 1}
(declare-fun |fifo_checker#4| (|fifo_checker_s|) (_ BitVec 1)) ; $auto$async2sync.cc:107:execute$230
; yosys-smt2-register $auto$async2sync.cc:107:execute$230 1
(define-fun |fifo_checker_n $auto$async2sync.cc:107:execute$230| ((state |fifo_checker_s|)) Bool (= ((_ extract 0 0) (|fifo_checker#4| state)) #b1))
; yosys-smt2-witness {"offset": 0, "path": ["$auto$async2sync.cc:107:execute$188"], "smtname": 5, "smtoffset": 0, "type": "reg", "width": 1}
(declare-fun |fifo_checker#5| (|fifo_checker_s|) (_ BitVec 1)) ; $auto$async2sync.cc:107:execute$188
; yosys-smt2-register $auto$async2sync.cc:107:execute$188 1
(define-fun |fifo_checker_n $auto$async2sync.cc:107:execute$188| ((state |fifo_checker_s|)) Bool (= ((_ extract 0 0) (|fifo_checker#5| state)) #b1))
; yosys-smt2-witness {"offset": 0, "path": ["$auto$async2sync.cc:116:execute$186"], "smtname": 6, "smtoffset": 0, "type": "reg", "width": 1}
(declare-fun |fifo_checker#6| (|fifo_checker_s|) (_ BitVec 1)) ; $auto$async2sync.cc:116:execute$186
; yosys-smt2-register $auto$async2sync.cc:116:execute$186 1
(define-fun |fifo_checker_n $auto$async2sync.cc:116:execute$186| ((state |fifo_checker_s|)) Bool (= ((_ extract 0 0) (|fifo_checker#6| state)) #b1))
; yosys-smt2-witness {"offset": 0, "path": ["$auto$async2sync.cc:107:execute$218"], "smtname": 7, "smtoffset": 0, "type": "reg", "width": 1}
(declare-fun |fifo_checker#7| (|fifo_checker_s|) (_ BitVec 1)) ; $auto$async2sync.cc:107:execute$218
; yosys-smt2-register $auto$async2sync.cc:107:execute$218 1
(define-fun |fifo_checker_n $auto$async2sync.cc:107:execute$218| ((state |fifo_checker_s|)) Bool (= ((_ extract 0 0) (|fifo_checker#7| state)) #b1))
; yosys-smt2-witness {"offset": 0, "path": ["$auto$async2sync.cc:107:execute$200"], "smtname": 8, "smtoffset": 0, "type": "reg", "width": 1}
(declare-fun |fifo_checker#8| (|fifo_checker_s|) (_ BitVec 1)) ; $auto$async2sync.cc:107:execute$200
; yosys-smt2-register $auto$async2sync.cc:107:execute$200 1
(define-fun |fifo_checker_n $auto$async2sync.cc:107:execute$200| ((state |fifo_checker_s|)) Bool (= ((_ extract 0 0) (|fifo_checker#8| state)) #b1))
; yosys-smt2-witness {"offset": 0, "path": ["$auto$async2sync.cc:116:execute$180"], "smtname": 9, "smtoffset": 0, "type": "reg", "width": 1}
(declare-fun |fifo_checker#9| (|fifo_checker_s|) (_ BitVec 1)) ; $auto$async2sync.cc:116:execute$180
; yosys-smt2-register $auto$async2sync.cc:116:execute$180 1
(define-fun |fifo_checker_n $auto$async2sync.cc:116:execute$180| ((state |fifo_checker_s|)) Bool (= ((_ extract 0 0) (|fifo_checker#9| state)) #b1))
; yosys-smt2-witness {"offset": 0, "path": ["$auto$async2sync.cc:107:execute$212"], "smtname": 10, "smtoffset": 0, "type": "reg", "width": 1}
(declare-fun |fifo_checker#10| (|fifo_checker_s|) (_ BitVec 1)) ; $auto$async2sync.cc:107:execute$212
; yosys-smt2-register $auto$async2sync.cc:107:execute$212 1
(define-fun |fifo_checker_n $auto$async2sync.cc:107:execute$212| ((state |fifo_checker_s|)) Bool (= ((_ extract 0 0) (|fifo_checker#10| state)) #b1))
; yosys-smt2-witness {"offset": 0, "path": ["$auto$async2sync.cc:116:execute$228"], "smtname": 11, "smtoffset": 0, "type": "reg", "width": 1}
(declare-fun |fifo_checker#11| (|fifo_checker_s|) (_ BitVec 1)) ; $auto$async2sync.cc:116:execute$228
; yosys-smt2-register $auto$async2sync.cc:116:execute$228 1
(define-fun |fifo_checker_n $auto$async2sync.cc:116:execute$228| ((state |fifo_checker_s|)) Bool (= ((_ extract 0 0) (|fifo_checker#11| state)) #b1))
; yosys-smt2-anyinit fifo_checker#12 1 formal_c6609df1_monitor.sv:155.5-163.8
; yosys-smt2-witness {"offset": 0, "path": ["\\_va_assert_count_stable_triggered_3"], "smtname": 12, "smtoffset": 0, "type": "init", "width": 1}
(declare-fun |fifo_checker#12| (|fifo_checker_s|) (_ BitVec 1)) ; \_va_assert_count_stable_triggered_3
; yosys-smt2-register _va_assert_count_stable_triggered_3 1
; yosys-smt2-wire _va_assert_count_stable_triggered_3 1
(define-fun |fifo_checker_n _va_assert_count_stable_triggered_3| ((state |fifo_checker_s|)) Bool (= ((_ extract 0 0) (|fifo_checker#12| state)) #b1))
; yosys-smt2-anyinit fifo_checker#13 1 formal_c6609df1_monitor.sv:99.5-107.8
; yosys-smt2-witness {"offset": 0, "path": ["\\_va_assert_read_dec_triggered_2"], "smtname": 13, "smtoffset": 0, "type": "init", "width": 1}
(declare-fun |fifo_checker#13| (|fifo_checker_s|) (_ BitVec 1)) ; \_va_assert_read_dec_triggered_2
; yosys-smt2-register _va_assert_read_dec_triggered_2 1
; yosys-smt2-wire _va_assert_read_dec_triggered_2 1
(define-fun |fifo_checker_n _va_assert_read_dec_triggered_2| ((state |fifo_checker_s|)) Bool (= ((_ extract 0 0) (|fifo_checker#13| state)) #b1))
; yosys-smt2-anyinit fifo_checker#14 1 formal_c6609df1_monitor.sv:77.5-85.8
; yosys-smt2-witness {"offset": 0, "path": ["\\_va_assert_write_inc_triggered_1"], "smtname": 14, "smtoffset": 0, "type": "init", "width": 1}
(declare-fun |fifo_checker#14| (|fifo_checker_s|) (_ BitVec 1)) ; \_va_assert_write_inc_triggered_1
; yosys-smt2-register _va_assert_write_inc_triggered_1 1
; yosys-smt2-wire _va_assert_write_inc_triggered_1 1
(define-fun |fifo_checker_n _va_assert_write_inc_triggered_1| ((state |fifo_checker_s|)) Bool (= ((_ extract 0 0) (|fifo_checker#14| state)) #b1))
(declare-fun |fifo_checker#15| (|fifo_checker_s|) (_ BitVec 1)) ; \rst_n
(define-fun |fifo_checker#16| ((state |fifo_checker_s|)) (_ BitVec 1) (ite (= ((_ extract 0 0) (|fifo_checker#15| state)) #b1) #b1 #b0)) ; \assert_count_bounded_EN
; yosys-smt2-wire assert_count_bounded_EN 1
(define-fun |fifo_checker_n assert_count_bounded_EN| ((state |fifo_checker_s|)) Bool (= ((_ extract 0 0) (|fifo_checker#16| state)) #b1))
; yosys-smt2-wire assert_count_pos_EN 1
(define-fun |fifo_checker_n assert_count_pos_EN| ((state |fifo_checker_s|)) Bool (= ((_ extract 0 0) (|fifo_checker#16| state)) #b1))
(declare-fun |fifo_checker#17| (|fifo_checker_s|) (_ BitVec 4)) ; \count
; yosys-smt2-anyinit fifo_checker#18 4 formal_c6609df1_monitor.sv:19.5-29.8
; yosys-smt2-witness {"offset": 0, "path": ["\\count_prev"], "smtname": 18, "smtoffset": 0, "type": "init", "width": 4}
(declare-fun |fifo_checker#18| (|fifo_checker_s|) (_ BitVec 4)) ; \count_prev
(define-fun |fifo_checker#19| ((state |fifo_checker_s|)) Bool (= (|fifo_checker#17| state) (|fifo_checker#18| state))) ; $eq$formal_c6609df1_monitor.sv:159$86_Y
(define-fun |fifo_checker#20| ((state |fifo_checker_s|)) Bool (not (or  (|fifo_checker#19| state) false))) ; $logic_not$formal_c6609df1_monitor.sv:159$87_Y
(define-fun |fifo_checker#21| ((state |fifo_checker_s|)) Bool (and (or  (= ((_ extract 0 0) (|fifo_checker#12| state)) #b1) false) (or  (|fifo_checker#20| state) false))) ; $logic_and$formal_c6609df1_monitor.sv:159$88_Y
(define-fun |fifo_checker#22| ((state |fifo_checker_s|)) (_ BitVec 1) (ite (|fifo_checker#21| state) #b1 #b0)) ; $procmux$97_Y
(define-fun |fifo_checker#23| ((state |fifo_checker_s|)) (_ BitVec 1) (ite (= ((_ extract 0 0) (|fifo_checker#15| state)) #b1) (|fifo_checker#22| state) #b0)) ; \assert_count_stable_EN
; yosys-smt2-wire assert_count_stable_EN 1
(define-fun |fifo_checker_n assert_count_stable_EN| ((state |fifo_checker_s|)) Bool (= ((_ extract 0 0) (|fifo_checker#23| state)) #b1))
(declare-fun |fifo_checker#24| (|fifo_checker_s|) Bool) ; \empty
; yosys-smt2-anyinit fifo_checker#25 1 formal_c6609df1_monitor.sv:19.5-29.8
; yosys-smt2-witness {"offset": 0, "path": ["\\empty_prev"], "smtname": 25, "smtoffset": 0, "type": "init", "width": 1}
(declare-fun |fifo_checker#25| (|fifo_checker_s|) (_ BitVec 1)) ; \empty_prev
(define-fun |fifo_checker#26| ((state |fifo_checker_s|)) Bool (not (or  (= ((_ extract 0 0) (|fifo_checker#25| state)) #b1) false))) ; $logic_not$formal_c6609df1_monitor.sv:147$78_Y
(define-fun |fifo_checker#27| ((state |fifo_checker_s|)) Bool (and (or  (|fifo_checker#24| state) false) (or  (|fifo_checker#26| state) false))) ; $logic_and$formal_c6609df1_monitor.sv:147$79_Y
; yosys-smt2-anyinit fifo_checker#28 1 formal_c6609df1_monitor.sv:36.5-46.8
; yosys-smt2-witness {"offset": 0, "path": ["\\rd_en_past1"], "smtname": 28, "smtoffset": 0, "type": "init", "width": 1}
(declare-fun |fifo_checker#28| (|fifo_checker_s|) (_ BitVec 1)) ; \rd_en_past1
(define-fun |fifo_checker#29| ((state |fifo_checker_s|)) Bool (not (or  (= ((_ extract 0 0) (|fifo_checker#28| state)) #b1) false))) ; $logic_not$formal_c6609df1_monitor.sv:147$80_Y
(define-fun |fifo_checker#30| ((state |fifo_checker_s|)) Bool (and (or  (|fifo_checker#27| state) false) (or  (|fifo_checker#29| state) false))) ; $logic_and$formal_c6609df1_monitor.sv:147$81_Y
(define-fun |fifo_checker#31| ((state |fifo_checker_s|)) (_ BitVec 1) (ite (|fifo_checker#30| state) #b1 #b0)) ; $procmux$102_Y
(define-fun |fifo_checker#32| ((state |fifo_checker_s|)) (_ BitVec 1) (ite (= ((_ extract 0 0) (|fifo_checker#15| state)) #b1) (|fifo_checker#31| state) #b0)) ; \assert_empty_rise_EN
; yosys-smt2-wire assert_empty_rise_EN 1
(define-fun |fifo_checker_n assert_empty_rise_EN| ((state |fifo_checker_s|)) Bool (= ((_ extract 0 0) (|fifo_checker#32| state)) #b1))
(define-fun |fifo_checker#33| ((state |fifo_checker_s|)) Bool (not (or  (= ((_ extract 0 0) (|fifo_checker#17| state)) #b1) (= ((_ extract 1 1) (|fifo_checker#17| state)) #b1) (= ((_ extract 2 2) (|fifo_checker#17| state)) #b1) (= ((_ extract 3 3) (|fifo_checker#17| state)) #b1)))) ; $eq$formal_c6609df1_monitor.sv:60$13_Y
(define-fun |fifo_checker#34| ((state |fifo_checker_s|)) Bool (not (or  (|fifo_checker#24| state) false))) ; $logic_not$formal_c6609df1_monitor.sv:105$50_Y
(define-fun |fifo_checker#35| ((state |fifo_checker_s|)) Bool (and (or  (|fifo_checker#33| state) false) (or  (|fifo_checker#34| state) false))) ; $logic_and$formal_c6609df1_monitor.sv:60$15_Y
(define-fun |fifo_checker#36| ((state |fifo_checker_s|)) (_ BitVec 1) (ite (|fifo_checker#35| state) #b1 #b0)) ; $procmux$142_Y
(define-fun |fifo_checker#37| ((state |fifo_checker_s|)) (_ BitVec 1) (ite (= ((_ extract 0 0) (|fifo_checker#15| state)) #b1) (|fifo_checker#36| state) #b0)) ; \assert_empty_zero_EN
; yosys-smt2-wire assert_empty_zero_EN 1
(define-fun |fifo_checker_n assert_empty_zero_EN| ((state |fifo_checker_s|)) Bool (= ((_ extract 0 0) (|fifo_checker#37| state)) #b1))
(define-fun |fifo_checker#38| ((state |fifo_checker_s|)) Bool (= (|fifo_checker#17| state) #b1000)) ; $eq$formal_c6609df1_monitor.sv:69$21_Y
(declare-fun |fifo_checker#39| (|fifo_checker_s|) Bool) ; \full
(define-fun |fifo_checker#40| ((state |fifo_checker_s|)) Bool (not (or  (|fifo_checker#39| state) false))) ; $logic_not$formal_c6609df1_monitor.sv:69$22_Y
(define-fun |fifo_checker#41| ((state |fifo_checker_s|)) Bool (and (or  (|fifo_checker#38| state) false) (or  (|fifo_checker#40| state) false))) ; $logic_and$formal_c6609df1_monitor.sv:69$23_Y
(define-fun |fifo_checker#42| ((state |fifo_checker_s|)) (_ BitVec 1) (ite (|fifo_checker#41| state) #b1 #b0)) ; $procmux$138_Y
(define-fun |fifo_checker#43| ((state |fifo_checker_s|)) (_ BitVec 1) (ite (= ((_ extract 0 0) (|fifo_checker#15| state)) #b1) (|fifo_checker#42| state) #b0)) ; \assert_full_max_EN
; yosys-smt2-wire assert_full_max_EN 1
(define-fun |fifo_checker_n assert_full_max_EN| ((state |fifo_checker_s|)) Bool (= ((_ extract 0 0) (|fifo_checker#43| state)) #b1))
; yosys-smt2-anyinit fifo_checker#44 1 formal_c6609df1_monitor.sv:19.5-29.8
; yosys-smt2-witness {"offset": 0, "path": ["\\full_prev"], "smtname": 44, "smtoffset": 0, "type": "init", "width": 1}
(declare-fun |fifo_checker#44| (|fifo_checker_s|) (_ BitVec 1)) ; \full_prev
(define-fun |fifo_checker#45| ((state |fifo_checker_s|)) Bool (not (or  (= ((_ extract 0 0) (|fifo_checker#44| state)) #b1) false))) ; $logic_not$formal_c6609df1_monitor.sv:138$69_Y
(define-fun |fifo_checker#46| ((state |fifo_checker_s|)) Bool (and (or  (|fifo_checker#39| state) false) (or  (|fifo_checker#45| state) false))) ; $logic_and$formal_c6609df1_monitor.sv:138$70_Y
; yosys-smt2-anyinit fifo_checker#47 1 formal_c6609df1_monitor.sv:36.5-46.8
; yosys-smt2-witness {"offset": 0, "path": ["\\wr_en_past1"], "smtname": 47, "smtoffset": 0, "type": "init", "width": 1}
(declare-fun |fifo_checker#47| (|fifo_checker_s|) (_ BitVec 1)) ; \wr_en_past1
(define-fun |fifo_checker#48| ((state |fifo_checker_s|)) Bool (not (or  (= ((_ extract 0 0) (|fifo_checker#47| state)) #b1) false))) ; $logic_not$formal_c6609df1_monitor.sv:138$71_Y
(define-fun |fifo_checker#49| ((state |fifo_checker_s|)) Bool (and (or  (|fifo_checker#46| state) false) (or  (|fifo_checker#48| state) false))) ; $logic_and$formal_c6609df1_monitor.sv:138$72_Y
(define-fun |fifo_checker#50| ((state |fifo_checker_s|)) (_ BitVec 1) (ite (|fifo_checker#49| state) #b1 #b0)) ; $procmux$106_Y
(define-fun |fifo_checker#51| ((state |fifo_checker_s|)) (_ BitVec 1) (ite (= ((_ extract 0 0) (|fifo_checker#15| state)) #b1) (|fifo_checker#50| state) #b0)) ; \assert_full_rise_EN
; yosys-smt2-wire assert_full_rise_EN 1
(define-fun |fifo_checker_n assert_full_rise_EN| ((state |fifo_checker_s|)) Bool (= ((_ extract 0 0) (|fifo_checker#51| state)) #b1))
; yosys-smt2-wire assert_not_full_and_empty_EN 1
(define-fun |fifo_checker_n assert_not_full_and_empty_EN| ((state |fifo_checker_s|)) Bool (= ((_ extract 0 0) (|fifo_checker#16| state)) #b1))
; yosys-smt2-anyinit fifo_checker#52 4 formal_c6609df1_monitor.sv:36.5-46.8
; yosys-smt2-witness {"offset": 0, "path": ["\\count_past1"], "smtname": 52, "smtoffset": 0, "type": "init", "width": 4}
(declare-fun |fifo_checker#52| (|fifo_checker_s|) (_ BitVec 4)) ; \count_past1
(define-fun |fifo_checker#53| ((state |fifo_checker_s|)) (_ BitVec 5) (bvsub (concat #b0 (|fifo_checker#52| state)) #b00001)) ; $sub$formal_c6609df1_monitor.sv:103$44_Y [4:0]
(define-fun |fifo_checker#54| ((state |fifo_checker_s|)) Bool (= (concat #b0000000000000000000000000000 (|fifo_checker#17| state)) (concat ((_ extract 4 4) (|fifo_checker#53| state)) (concat ((_ extract 4 4) (|fifo_checker#53| state)) (concat ((_ extract 4 4) (|fifo_checker#53| state)) (concat ((_ extract 4 4) (|fifo_checker#53| state)) (concat ((_ extract 4 4) (|fifo_checker#53| state)) (concat ((_ extract 4 4) (|fifo_checker#53| state)) (concat ((_ extract 4 4) (|fifo_checker#53| state)) (concat ((_ extract 4 4) (|fifo_checker#53| state)) (concat ((_ extract 4 4) (|fifo_checker#53| state)) (concat ((_ extract 4 4) (|fifo_checker#53| state)) (concat ((_ extract 4 4) (|fifo_checker#53| state)) (concat ((_ extract 4 4) (|fifo_checker#53| state)) (concat ((_ extract 4 4) (|fifo_checker#53| state)) (concat ((_ extract 4 4) (|fifo_checker#53| state)) (concat ((_ extract 4 4) (|fifo_checker#53| state)) (concat ((_ extract 4 4) (|fifo_checker#53| state)) (concat ((_ extract 4 4) (|fifo_checker#53| state)) (concat ((_ extract 4 4) (|fifo_checker#53| state)) (concat ((_ extract 4 4) (|fifo_checker#53| state)) (concat ((_ extract 4 4) (|fifo_checker#53| state)) (concat ((_ extract 4 4) (|fifo_checker#53| state)) (concat ((_ extract 4 4) (|fifo_checker#53| state)) (concat ((_ extract 4 4) (|fifo_checker#53| state)) (concat ((_ extract 4 4) (|fifo_checker#53| state)) (concat ((_ extract 4 4) (|fifo_checker#53| state)) (concat ((_ extract 4 4) (|fifo_checker#53| state)) (concat ((_ extract 4 4) (|fifo_checker#53| state)) (|fifo_checker#53| state)))))))))))))))))))))))))))))) ; $eq$formal_c6609df1_monitor.sv:103$45_Y
(define-fun |fifo_checker#55| ((state |fifo_checker_s|)) Bool (not (or  (|fifo_checker#54| state) false))) ; $logic_not$formal_c6609df1_monitor.sv:103$46_Y
(define-fun |fifo_checker#56| ((state |fifo_checker_s|)) Bool (and (or  (= ((_ extract 0 0) (|fifo_checker#13| state)) #b1) false) (or  (|fifo_checker#55| state) false))) ; $logic_and$formal_c6609df1_monitor.sv:103$47_Y
(define-fun |fifo_checker#57| ((state |fifo_checker_s|)) (_ BitVec 1) (ite (|fifo_checker#56| state) #b1 #b0)) ; $procmux$121_Y
(define-fun |fifo_checker#58| ((state |fifo_checker_s|)) (_ BitVec 1) (ite (= ((_ extract 0 0) (|fifo_checker#15| state)) #b1) (|fifo_checker#57| state) #b0)) ; \assert_read_dec_EN
; yosys-smt2-wire assert_read_dec_EN 1
(define-fun |fifo_checker_n assert_read_dec_EN| ((state |fifo_checker_s|)) Bool (= ((_ extract 0 0) (|fifo_checker#58| state)) #b1))
(define-fun |fifo_checker#59| ((state |fifo_checker_s|)) (_ BitVec 5) (bvadd (concat #b0 (|fifo_checker#52| state)) #b00001)) ; $add$formal_c6609df1_monitor.sv:81$28_Y
(define-fun |fifo_checker#60| ((state |fifo_checker_s|)) Bool (= (concat #b0 (|fifo_checker#17| state)) (|fifo_checker#59| state))) ; $eq$formal_c6609df1_monitor.sv:81$29_Y
(define-fun |fifo_checker#61| ((state |fifo_checker_s|)) Bool (not (or  (|fifo_checker#60| state) false))) ; $logic_not$formal_c6609df1_monitor.sv:81$30_Y
(define-fun |fifo_checker#62| ((state |fifo_checker_s|)) Bool (and (or  (= ((_ extract 0 0) (|fifo_checker#14| state)) #b1) false) (or  (|fifo_checker#61| state) false))) ; $logic_and$formal_c6609df1_monitor.sv:81$31_Y
(define-fun |fifo_checker#63| ((state |fifo_checker_s|)) (_ BitVec 1) (ite (|fifo_checker#62| state) #b1 #b0)) ; $procmux$133_Y
(define-fun |fifo_checker#64| ((state |fifo_checker_s|)) (_ BitVec 1) (ite (= ((_ extract 0 0) (|fifo_checker#15| state)) #b1) (|fifo_checker#63| state) #b0)) ; \assert_write_inc_EN
; yosys-smt2-wire assert_write_inc_EN 1
(define-fun |fifo_checker_n assert_write_inc_EN| ((state |fifo_checker_s|)) Bool (= ((_ extract 0 0) (|fifo_checker#64| state)) #b1))
(define-fun |fifo_checker#65| ((state |fifo_checker_s|)) (_ BitVec 1) (ite (|fifo_checker#24| state) #b1 #b0)) ; $procmux$114_Y
(define-fun |fifo_checker#66| ((state |fifo_checker_s|)) (_ BitVec 1) (ite (= ((_ extract 0 0) (|fifo_checker#15| state)) #b1) (|fifo_checker#65| state) #b0)) ; \assume_no_read_empty_EN
; yosys-smt2-wire assume_no_read_empty_EN 1
(define-fun |fifo_checker_n assume_no_read_empty_EN| ((state |fifo_checker_s|)) Bool (= ((_ extract 0 0) (|fifo_checker#66| state)) #b1))
(define-fun |fifo_checker#67| ((state |fifo_checker_s|)) (_ BitVec 1) (ite (|fifo_checker#39| state) #b1 #b0)) ; $procmux$126_Y
(define-fun |fifo_checker#68| ((state |fifo_checker_s|)) (_ BitVec 1) (ite (= ((_ extract 0 0) (|fifo_checker#15| state)) #b1) (|fifo_checker#67| state) #b0)) ; \assume_no_write_full_EN
; yosys-smt2-wire assume_no_write_full_EN 1
(define-fun |fifo_checker_n assume_no_write_full_EN| ((state |fifo_checker_s|)) Bool (= ((_ extract 0 0) (|fifo_checker#68| state)) #b1))
(declare-fun |fifo_checker#69| (|fifo_checker_s|) Bool) ; \clk
; yosys-smt2-input clk 1
; yosys-smt2-wire clk 1
; yosys-smt2-clock clk posedge
; yosys-smt2-witness {"offset": 0, "path": ["\\clk"], "smtname": "clk", "smtoffset": 0, "type": "posedge", "width": 1}
; yosys-smt2-witness {"offset": 0, "path": ["\\clk"], "smtname": "clk", "smtoffset": 0, "type": "input", "width": 1}
(define-fun |fifo_checker_n clk| ((state |fifo_checker_s|)) Bool (|fifo_checker#69| state))
; yosys-smt2-input count 4
; yosys-smt2-wire count 4
; yosys-smt2-witness {"offset": 0, "path": ["\\count"], "smtname": "count", "smtoffset": 0, "type": "input", "width": 4}
(define-fun |fifo_checker_n count| ((state |fifo_checker_s|)) (_ BitVec 4) (|fifo_checker#17| state))
; yosys-smt2-register count_past1 4
; yosys-smt2-wire count_past1 4
(define-fun |fifo_checker_n count_past1| ((state |fifo_checker_s|)) (_ BitVec 4) (|fifo_checker#52| state))
; yosys-smt2-register count_prev 4
; yosys-smt2-wire count_prev 4
(define-fun |fifo_checker_n count_prev| ((state |fifo_checker_s|)) (_ BitVec 4) (|fifo_checker#18| state))
; yosys-smt2-input empty 1
; yosys-smt2-wire empty 1
; yosys-smt2-witness {"offset": 0, "path": ["\\empty"], "smtname": "empty", "smtoffset": 0, "type": "input", "width": 1}
(define-fun |fifo_checker_n empty| ((state |fifo_checker_s|)) Bool (|fifo_checker#24| state))
; yosys-smt2-register empty_prev 1
; yosys-smt2-wire empty_prev 1
(define-fun |fifo_checker_n empty_prev| ((state |fifo_checker_s|)) Bool (= ((_ extract 0 0) (|fifo_checker#25| state)) #b1))
; yosys-smt2-input full 1
; yosys-smt2-wire full 1
; yosys-smt2-witness {"offset": 0, "path": ["\\full"], "smtname": "full", "smtoffset": 0, "type": "input", "width": 1}
(define-fun |fifo_checker_n full| ((state |fifo_checker_s|)) Bool (|fifo_checker#39| state))
; yosys-smt2-register full_prev 1
; yosys-smt2-wire full_prev 1
(define-fun |fifo_checker_n full_prev| ((state |fifo_checker_s|)) Bool (= ((_ extract 0 0) (|fifo_checker#44| state)) #b1))
(declare-fun |fifo_checker#70| (|fifo_checker_s|) (_ BitVec 8)) ; \rd_data
; yosys-smt2-input rd_data 8
; yosys-smt2-wire rd_data 8
; yosys-smt2-witness {"offset": 0, "path": ["\\rd_data"], "smtname": "rd_data", "smtoffset": 0, "type": "input", "width": 8}
(define-fun |fifo_checker_n rd_data| ((state |fifo_checker_s|)) (_ BitVec 8) (|fifo_checker#70| state))
(declare-fun |fifo_checker#71| (|fifo_checker_s|) Bool) ; \rd_en
; yosys-smt2-input rd_en 1
; yosys-smt2-wire rd_en 1
; yosys-smt2-witness {"offset": 0, "path": ["\\rd_en"], "smtname": "rd_en", "smtoffset": 0, "type": "input", "width": 1}
(define-fun |fifo_checker_n rd_en| ((state |fifo_checker_s|)) Bool (|fifo_checker#71| state))
; yosys-smt2-register rd_en_past1 1
; yosys-smt2-wire rd_en_past1 1
(define-fun |fifo_checker_n rd_en_past1| ((state |fifo_checker_s|)) Bool (= ((_ extract 0 0) (|fifo_checker#28| state)) #b1))
; yosys-smt2-input rst_n 1
; yosys-smt2-wire rst_n 1
; yosys-smt2-witness {"offset": 0, "path": ["\\rst_n"], "smtname": "rst_n", "smtoffset": 0, "type": "input", "width": 1}
(define-fun |fifo_checker_n rst_n| ((state |fifo_checker_s|)) Bool (= ((_ extract 0 0) (|fifo_checker#15| state)) #b1))
(declare-fun |fifo_checker#72| (|fifo_checker_s|) (_ BitVec 8)) ; \wr_data
; yosys-smt2-input wr_data 8
; yosys-smt2-wire wr_data 8
; yosys-smt2-witness {"offset": 0, "path": ["\\wr_data"], "smtname": "wr_data", "smtoffset": 0, "type": "input", "width": 8}
(define-fun |fifo_checker_n wr_data| ((state |fifo_checker_s|)) (_ BitVec 8) (|fifo_checker#72| state))
(declare-fun |fifo_checker#73| (|fifo_checker_s|) Bool) ; \wr_en
; yosys-smt2-input wr_en 1
; yosys-smt2-wire wr_en 1
; yosys-smt2-witness {"offset": 0, "path": ["\\wr_en"], "smtname": "wr_en", "smtoffset": 0, "type": "input", "width": 1}
(define-fun |fifo_checker_n wr_en| ((state |fifo_checker_s|)) Bool (|fifo_checker#73| state))
; yosys-smt2-register wr_en_past1 1
; yosys-smt2-wire wr_en_past1 1
(define-fun |fifo_checker_n wr_en_past1| ((state |fifo_checker_s|)) Bool (= ((_ extract 0 0) (|fifo_checker#47| state)) #b1))
(define-fun |fifo_checker#74| ((state |fifo_checker_s|)) (_ BitVec 1) (bvnot (ite (|fifo_checker#69| state) #b1 #b0))) ; $auto$rtlil.cc:3255:Not$311
; yosys-smt2-assume 0 $auto$formalff.cc:987:execute$312
(define-fun |fifo_checker_u 0| ((state |fifo_checker_s|)) Bool (or (= ((_ extract 0 0) (|fifo_checker#74| state)) #b1) (not true))) ; $auto$formalff.cc:987:execute$312
; yosys-smt2-assert 0 assert_count_bounded
(define-fun |fifo_checker_a 0| ((state |fifo_checker_s|)) Bool (or (= ((_ extract 0 0) (|fifo_checker#9| state)) #b1) (not (= ((_ extract 0 0) (|fifo_checker#7| state)) #b1)))) ; assert_count_bounded
; yosys-smt2-assert 1 assert_count_pos
(define-fun |fifo_checker_a 1| ((state |fifo_checker_s|)) Bool (or (= ((_ extract 0 0) (|fifo_checker#6| state)) #b1) (not (= ((_ extract 0 0) (|fifo_checker#7| state)) #b1)))) ; assert_count_pos
; yosys-smt2-assert 2 assert_count_stable
(define-fun |fifo_checker_a 2| ((state |fifo_checker_s|)) Bool (or (= ((_ extract 0 0) (|fifo_checker#11| state)) #b1) (not (= ((_ extract 0 0) (|fifo_checker#5| state)) #b1)))) ; assert_count_stable
; yosys-smt2-assert 3 assert_empty_rise
(define-fun |fifo_checker_a 3| ((state |fifo_checker_s|)) Bool (or (= ((_ extract 0 0) (|fifo_checker#11| state)) #b1) (not (= ((_ extract 0 0) (|fifo_checker#2| state)) #b1)))) ; assert_empty_rise
; yosys-smt2-assert 4 assert_empty_zero
(define-fun |fifo_checker_a 4| ((state |fifo_checker_s|)) Bool (or (= ((_ extract 0 0) (|fifo_checker#11| state)) #b1) (not (= ((_ extract 0 0) (|fifo_checker#8| state)) #b1)))) ; assert_empty_zero
; yosys-smt2-assert 5 assert_full_max
(define-fun |fifo_checker_a 5| ((state |fifo_checker_s|)) Bool (or (= ((_ extract 0 0) (|fifo_checker#11| state)) #b1) (not (= ((_ extract 0 0) (|fifo_checker#0| state)) #b1)))) ; assert_full_max
; yosys-smt2-assert 6 assert_full_rise
(define-fun |fifo_checker_a 6| ((state |fifo_checker_s|)) Bool (or (= ((_ extract 0 0) (|fifo_checker#11| state)) #b1) (not (= ((_ extract 0 0) (|fifo_checker#10| state)) #b1)))) ; assert_full_rise
; yosys-smt2-assert 7 assert_not_full_and_empty
(define-fun |fifo_checker_a 7| ((state |fifo_checker_s|)) Bool (or (= ((_ extract 0 0) (|fifo_checker#1| state)) #b1) (not (= ((_ extract 0 0) (|fifo_checker#7| state)) #b1)))) ; assert_not_full_and_empty
; yosys-smt2-assert 8 assert_read_dec
(define-fun |fifo_checker_a 8| ((state |fifo_checker_s|)) Bool (or (= ((_ extract 0 0) (|fifo_checker#11| state)) #b1) (not (= ((_ extract 0 0) (|fifo_checker#3| state)) #b1)))) ; assert_read_dec
; yosys-smt2-assert 9 assert_write_inc
(define-fun |fifo_checker_a 9| ((state |fifo_checker_s|)) Bool (or (= ((_ extract 0 0) (|fifo_checker#11| state)) #b1) (not (= ((_ extract 0 0) (|fifo_checker#4| state)) #b1)))) ; assert_write_inc
(define-fun |fifo_checker#75| ((state |fifo_checker_s|)) Bool (not (or  (|fifo_checker#71| state) false))) ; $logic_not$formal_c6609df1_monitor.sv:114$57_Y
; yosys-smt2-assume 1 assume_no_read_empty
(define-fun |fifo_checker_u 1| ((state |fifo_checker_s|)) Bool (or (|fifo_checker#75| state) (not (= ((_ extract 0 0) (|fifo_checker#66| state)) #b1)))) ; assume_no_read_empty
(define-fun |fifo_checker#76| ((state |fifo_checker_s|)) Bool (not (or  (|fifo_checker#73| state) false))) ; $logic_not$formal_c6609df1_monitor.sv:105$52_Y
; yosys-smt2-assume 2 assume_no_write_full
(define-fun |fifo_checker_u 2| ((state |fifo_checker_s|)) Bool (or (|fifo_checker#76| state) (not (= ((_ extract 0 0) (|fifo_checker#68| state)) #b1)))) ; assume_no_write_full
(define-fun |fifo_checker#77| ((state |fifo_checker_s|)) (_ BitVec 4) (ite (= ((_ extract 0 0) (|fifo_checker#15| state)) #b1) (|fifo_checker#17| state) #b0000)) ; $0\count_past1[3:0]
(define-fun |fifo_checker#78| ((state |fifo_checker_s|)) (_ BitVec 1) (ite (= ((_ extract 0 0) (|fifo_checker#15| state)) #b1) (ite (|fifo_checker#73| state) #b1 #b0) #b0)) ; $0\wr_en_past1[0:0]
(define-fun |fifo_checker#79| ((state |fifo_checker_s|)) (_ BitVec 1) (ite (= ((_ extract 0 0) (|fifo_checker#15| state)) #b1) (ite (|fifo_checker#39| state) #b1 #b0) #b0)) ; $0\full_prev[0:0]
(define-fun |fifo_checker#80| ((state |fifo_checker_s|)) (_ BitVec 1) (ite (= ((_ extract 0 0) (|fifo_checker#15| state)) #b1) (ite (|fifo_checker#71| state) #b1 #b0) #b0)) ; $0\rd_en_past1[0:0]
(define-fun |fifo_checker#81| ((state |fifo_checker_s|)) (_ BitVec 1) (ite (= ((_ extract 0 0) (|fifo_checker#15| state)) #b1) (ite (|fifo_checker#24| state) #b1 #b0) #b0)) ; $0\empty_prev[0:0]
(define-fun |fifo_checker#82| ((state |fifo_checker_s|)) Bool (and (or  (|fifo_checker#73| state) false) (or  (|fifo_checker#40| state) false))) ; $logic_and$formal_c6609df1_monitor.sv:83$35_Y
(define-fun |fifo_checker#83| ((state |fifo_checker_s|)) Bool (and (or  (|fifo_checker#82| state) false) (or  (|fifo_checker#75| state) false))) ; $logic_and$formal_c6609df1_monitor.sv:83$37_Y
(define-fun |fifo_checker#84| ((state |fifo_checker_s|)) (_ BitVec 1) (ite (= ((_ extract 0 0) (|fifo_checker#15| state)) #b1) (ite (|fifo_checker#83| state) #b1 #b0) #b0)) ; $0\_va_assert_write_inc_triggered_1[0:0]
(define-fun |fifo_checker#85| ((state |fifo_checker_s|)) Bool (and (or  (|fifo_checker#71| state) false) (or  (|fifo_checker#34| state) false))) ; $logic_and$formal_c6609df1_monitor.sv:105$51_Y
(define-fun |fifo_checker#86| ((state |fifo_checker_s|)) Bool (and (or  (|fifo_checker#85| state) false) (or  (|fifo_checker#76| state) false))) ; $logic_and$formal_c6609df1_monitor.sv:105$53_Y
(define-fun |fifo_checker#87| ((state |fifo_checker_s|)) (_ BitVec 1) (ite (= ((_ extract 0 0) (|fifo_checker#15| state)) #b1) (ite (|fifo_checker#86| state) #b1 #b0) #b0)) ; $0\_va_assert_read_dec_triggered_2[0:0]
(define-fun |fifo_checker#88| ((state |fifo_checker_s|)) Bool (and (or  (|fifo_checker#76| state) false) (or  (|fifo_checker#75| state) false))) ; $logic_and$formal_c6609df1_monitor.sv:161$93_Y
(define-fun |fifo_checker#89| ((state |fifo_checker_s|)) (_ BitVec 1) (ite (= ((_ extract 0 0) (|fifo_checker#15| state)) #b1) (ite (|fifo_checker#88| state) #b1 #b0) #b0)) ; $0\_va_assert_count_stable_triggered_3[0:0]
(define-fun |fifo_checker#90| ((state |fifo_checker_s|)) Bool (bvule (|fifo_checker#17| state) #b1000)) ; $le$formal_c6609df1_monitor.sv:122$61_Y
(define-fun |fifo_checker#91| ((state |fifo_checker_s|)) Bool (bvuge (|fifo_checker#17| state) #b0000)) ; $ge$formal_c6609df1_monitor.sv:130$65_Y
(define-fun |fifo_checker#92| ((state |fifo_checker_s|)) Bool (and (or  (|fifo_checker#39| state) false) (or  (|fifo_checker#24| state) false))) ; $logic_and$formal_c6609df1_monitor.sv:52$8_Y
(define-fun |fifo_checker#93| ((state |fifo_checker_s|)) Bool (not (or  (|fifo_checker#92| state) false))) ; $logic_not$formal_c6609df1_monitor.sv:52$9_Y
(define-fun |fifo_checker_a| ((state |fifo_checker_s|)) Bool (and
  (|fifo_checker_a 0| state)
  (|fifo_checker_a 1| state)
  (|fifo_checker_a 2| state)
  (|fifo_checker_a 3| state)
  (|fifo_checker_a 4| state)
  (|fifo_checker_a 5| state)
  (|fifo_checker_a 6| state)
  (|fifo_checker_a 7| state)
  (|fifo_checker_a 8| state)
  (|fifo_checker_a 9| state)
))
(define-fun |fifo_checker_u| ((state |fifo_checker_s|)) Bool (and
  (|fifo_checker_u 0| state)
  (|fifo_checker_u 1| state)
  (|fifo_checker_u 2| state)
))
(define-fun |fifo_checker_i| ((state |fifo_checker_s|)) Bool (and
  (= (= ((_ extract 0 0) (|fifo_checker#0| state)) #b1) false) ; $auto$async2sync.cc:107:execute$206
  (= (= ((_ extract 0 0) (|fifo_checker#1| state)) #b1) true) ; $auto$async2sync.cc:116:execute$222
  (= (= ((_ extract 0 0) (|fifo_checker#2| state)) #b1) false) ; $auto$async2sync.cc:107:execute$194
  (= (= ((_ extract 0 0) (|fifo_checker#3| state)) #b1) false) ; $auto$async2sync.cc:107:execute$224
  (= (= ((_ extract 0 0) (|fifo_checker#4| state)) #b1) false) ; $auto$async2sync.cc:107:execute$230
  (= (= ((_ extract 0 0) (|fifo_checker#5| state)) #b1) false) ; $auto$async2sync.cc:107:execute$188
  (= (= ((_ extract 0 0) (|fifo_checker#6| state)) #b1) true) ; $auto$async2sync.cc:116:execute$186
  (= (= ((_ extract 0 0) (|fifo_checker#7| state)) #b1) false) ; $auto$async2sync.cc:107:execute$218
  (= (= ((_ extract 0 0) (|fifo_checker#8| state)) #b1) false) ; $auto$async2sync.cc:107:execute$200
  (= (= ((_ extract 0 0) (|fifo_checker#9| state)) #b1) true) ; $auto$async2sync.cc:116:execute$180
  (= (= ((_ extract 0 0) (|fifo_checker#10| state)) #b1) false) ; $auto$async2sync.cc:107:execute$212
  (= (= ((_ extract 0 0) (|fifo_checker#11| state)) #b1) true) ; $auto$async2sync.cc:116:execute$228
))
(define-fun |fifo_checker_h| ((state |fifo_checker_s|)) Bool true)
(define-fun |fifo_checker_t| ((state |fifo_checker_s|) (next_state |fifo_checker_s|)) Bool (and
  (= (|fifo_checker#77| state) (|fifo_checker#52| next_state)) ; $procdff$169 \count_past1
  (= (|fifo_checker#78| state) (|fifo_checker#47| next_state)) ; $procdff$170 \wr_en_past1
  (= (|fifo_checker#79| state) (|fifo_checker#44| next_state)) ; $procdff$174 \full_prev
  (= (|fifo_checker#80| state) (|fifo_checker#28| next_state)) ; $procdff$171 \rd_en_past1
  (= (|fifo_checker#81| state) (|fifo_checker#25| next_state)) ; $procdff$173 \empty_prev
  (= (|fifo_checker#77| state) (|fifo_checker#18| next_state)) ; $procdff$172 \count_prev
  (= (|fifo_checker#84| state) (|fifo_checker#14| next_state)) ; $procdff$168 \_va_assert_write_inc_triggered_1
  (= (|fifo_checker#87| state) (|fifo_checker#13| next_state)) ; $procdff$167 \_va_assert_read_dec_triggered_2
  (= (|fifo_checker#89| state) (|fifo_checker#12| next_state)) ; $procdff$166 \_va_assert_count_stable_triggered_3
  (= #b0 (|fifo_checker#11| next_state)) ; $auto$async2sync.cc:118:execute$229 $auto$async2sync.cc:116:execute$228
  (= (|fifo_checker#51| state) (|fifo_checker#10| next_state)) ; $auto$async2sync.cc:110:execute$214 $auto$async2sync.cc:107:execute$212
  (= (ite (|fifo_checker#90| state) #b1 #b0) (|fifo_checker#9| next_state)) ; $auto$async2sync.cc:118:execute$181 $auto$async2sync.cc:116:execute$180
  (= (|fifo_checker#37| state) (|fifo_checker#8| next_state)) ; $auto$async2sync.cc:110:execute$202 $auto$async2sync.cc:107:execute$200
  (= (|fifo_checker#16| state) (|fifo_checker#7| next_state)) ; $auto$async2sync.cc:110:execute$220 $auto$async2sync.cc:107:execute$218
  (= (ite (|fifo_checker#91| state) #b1 #b0) (|fifo_checker#6| next_state)) ; $auto$async2sync.cc:118:execute$187 $auto$async2sync.cc:116:execute$186
  (= (|fifo_checker#23| state) (|fifo_checker#5| next_state)) ; $auto$async2sync.cc:110:execute$190 $auto$async2sync.cc:107:execute$188
  (= (|fifo_checker#64| state) (|fifo_checker#4| next_state)) ; $auto$async2sync.cc:110:execute$232 $auto$async2sync.cc:107:execute$230
  (= (|fifo_checker#58| state) (|fifo_checker#3| next_state)) ; $auto$async2sync.cc:110:execute$226 $auto$async2sync.cc:107:execute$224
  (= (|fifo_checker#32| state) (|fifo_checker#2| next_state)) ; $auto$async2sync.cc:110:execute$196 $auto$async2sync.cc:107:execute$194
  (= (ite (|fifo_checker#93| state) #b1 #b0) (|fifo_checker#1| next_state)) ; $auto$async2sync.cc:118:execute$223 $auto$async2sync.cc:116:execute$222
  (= (|fifo_checker#43| state) (|fifo_checker#0| next_state)) ; $auto$async2sync.cc:110:execute$208 $auto$async2sync.cc:107:execute$206
)) ; end of module fifo_checker
; yosys-smt2-topmod fifo_checker
; end of yosys output
